Route #1: 5 12 58
Route #2: 8 17
Route #3: 19 97 27
Route #4: 18 10 39
Route #5: 38 47 26 48 96 64 34
Route #6: 75 93
Route #7: 35 46 31
Route #8: 59 60 82
Route #9: 74 13 4
Route #10: 25 65 78 42 28
Route #11: 15 22 41 20
Route #12: 89 98 99 62 71
Route #13: 1 70 54
Route #14: 14 49 6 37 87
Route #15: 32 33 53 73 95 24
Route #16: 57 72 36 29 43 45 2 7
Route #17: 92 9 86
Route #18: 66 84 90 68
Route #19: 21 56 94 80
Route #20: 44 67 88 40
Route #21: 30 85 11 79
Route #22: 83 51 81
Route #23: 50 91 52
Route #24: 23 61 100
Route #25: 69 16 55 76
Route #26: 63 77 3
Cost 27591.0000
Time 16.0007